0 0 0 4 4 4 4 4 4 4 4 4 4 4 4 
0 0 0 4 5 5 5 5 9 9 9 9 9 9 9 
0 0 0 4 5 5 5 5 9 10 10 10 10 14 15 
0 0 0 4 5 5 5 8 9 10 10 10 13 14 15 
0 0 0 4 5 5 7 8 9 10 11 12 13 14 15 
1 1 1 4 5 6 7 8 9 10 11 12 13 14 15 
1